
nNurses = 178;
hours = 67;
demand = [20 38 11 20 42 43 36 34 36 7 43 40 34 6 0 37 9 2 4 27 31 1 33 9 39 14 27 40 26 14 3 28 41 14 28 12 31 23 34 9 21 6 25 1 10 3 35 15 19 2 8 41 8 31 32 13 29 23 43 5 14 22 31 9 20 34 8];
minHours = 8;
maxHours = 16;
maxConsec = 8;
maxPresence = 19;